%%% static parameters %%%
timespan = 1;
Fact = [2];
Distr1 = [5];
Distr2 = [10];
Clients_N = [120];
Demand_W = [15];
Lt0 = [4];
Lt1 = [4];
SS_ = [0.85];
DS_D = [5];
K = [200];
MA = [500];
%%% dynamic parameters %%%
lost_ratio_sales_ret_th = 0.05471667337189878;
lost_ratio_sales_ret_w = 94;
lost_ratio_sales_dis_th = 0.34284698778075395;
lost_ratio_sales_dis_w = 61;
lost_ratio_sales_fac_th = 0.4011808003393711;
lost_ratio_sales_fac_w = 92;
stock_customer_MA_mean_relative_th = 0.7183430699063961;
stock_customer_MA_mean_relative_w = 25;
stock_distributor_MA_mean_relative_th = 0.2962989307083199;
stock_distributor_MA_mean_relative_w = 11;
stock_retailer_MA_mean_relative_th = 0.005178216835123872;
stock_retailer_MA_mean_relative_w = 21;
stock_factory_MA_mean_relative_th = 0.2662833920909373;
stock_factory_MA_mean_relative_w = 61;
